networks/zoo_54_281/zoo_54_281.txt
OKAY
Number of groups: 39
Flow 7: {6 9 0} {9 36 1} 
Flow 10: {17 12 0} {12 39 1} 
Flow 12: {17 16 0} {16 43 1} 
Flow 15: {3 19 0} 
Flow 17: {22 21 0} {21 48 1} 
Flow 19: {1 26 0} {26 22 1} {22 23 2} {23 50 3} 
Flow 20: {22 25 0} {25 52 1} 
Flow 32: {10 9 0} {9 11 1} {11 38 2} 
Flow 52: {4 1 0} {1 6 1} {6 33 2} 
Flow 69: {4 22 0} {22 24 1} {24 51 2} 
Flow 110: {7 8 0} {8 5 1} {5 32 2} 
Flow 117: {7 2 0} {2 10 1} {10 13 2} {13 40 3} 
Flow 123: {7 4 0} {4 20 1} {20 47 2} 
Flow 134: {8 7 0} 
Flow 136: {8 3 0} {3 18 1} {18 45 2} 
Flow 146: {9 10 0} {10 4 1} {4 17 2} {17 44 3} 
Flow 163: {3 21 0} {21 15 1} {15 42 2} 
Flow 181: {12 17 1} {17 4 2} {4 27 3} {27 54 4} 
Flow 184: {13 10 0} 
Flow 187: {14 9 0} {9 6 1} {6 1 2} {1 28 3} 
Flow 191: {14 10 0} {10 2 1} {2 3 2} {3 8 3} {8 35 4} 
Flow 195: {15 21 0} {21 3 1} {3 2 2} {2 7 3} 
Flow 196: {16 17 0} 
Flow 197: {2 29 0} 
Flow 206: {17 21 0} 
Flow 212: {18 3 0} {3 4 1} {4 31 2} 
Flow 226: {19 3 0} {3 30 1} 
Flow 229: {19 18 0} {18 27 1} 
Flow 231: {20 4 0} {4 7 1} {7 34 2} 
Flow 236: {21 22 0} {22 49 1} 
Flow 237: {21 27 0} 
Flow 254: {22 26 0} {26 53 1} 
Flow 257: {23 22 0} 
Flow 261: {24 22 0} 
Flow 262: {25 22 0} {22 4 1} {4 3 2} 
Flow 266: {26 1 0} {1 4 1} 
Flow 275: {27 4 0} {4 10 1} {10 37 2} 
Flow 278: {27 18 0} {18 19 1} {19 46 2} 
Flow 279: {27 21 0} 
Time taken running everything: 0 seconds
