networks/zoo_54_281/zoo_54_281.sol
<?xml version = "1.0" encoding="UTF-8" standalone="yes"?>
<CPLEXSolution version="1.2">
 <header
   problemName="networks/zoo_54_281/zoo_54_281.lp"
   solutionName="incumbent"
   solutionIndex="-1"
   objectiveValue="39"
   solutionTypeValue="3"
   solutionTypeString="primal"
   solutionStatusValue="101"
   solutionStatusString="integer optimal solution"
   solutionMethodString="mip"
   primalFeasible="1"
   dualFeasible="1"
   MIPNodes="0"
   MIPIterations="3107"
   writeLevel="3"/>
 <quality
   epInt="1.0000000000000001e-05"
   epRHS="9.9999999999999995e-07"
   maxIntInfeas="1.1102230246251565e-15"
   maxPrimalInfeas="1.000000082740371e-09"
   maxX="4"
   maxSlack="10"/>
 <variables>
  <variable name="Y(7,9)" index="326" value="1"/>
  <variable name="Y(10,12)" index="488" value="1"/>
  <variable name="Y(12,16)" index="598" value="1"/>
  <variable name="Y(15,3)" index="744" value="1"/>
  <variable name="Y(17,21)" index="868" value="1"/>
  <variable name="Y(19,23)" index="976" value="1"/>
  <variable name="Y(20,25)" index="1031" value="1"/>
  <variable name="Y(32,11)" index="1653" value="1"/>
  <variable name="Y(52,6)" index="2708" value="1"/>
  <variable name="Y(69,24)" index="3627" value="1"/>
  <variable name="Y(110,5)" index="5781" value="1"/>
  <variable name="Y(117,13)" index="6160" value="1"/>
  <variable name="Y(123,20)" index="6485" value="0.99999999999999978"/>
  <variable name="Y(134,8)" index="7056" value="1"/>
  <variable name="Y(136,18)" index="7172" value="1"/>
  <variable name="Y(146,17)" index="7701" value="1"/>
  <variable name="Y(163,15)" index="8600" value="1"/>
  <variable name="Y(181,27)" index="9566" value="1"/>
  <variable name="Y(184,13)" index="9711" value="1"/>
  <variable name="Y(187,1)" index="9858" value="1"/>
  <variable name="Y(191,8)" index="10077" value="1"/>
  <variable name="Y(195,2)" index="10283" value="1"/>
  <variable name="Y(196,16)" index="10350" value="1"/>
  <variable name="Y(197,2)" index="10389" value="1"/>
  <variable name="Y(206,17)" index="10881" value="1"/>
  <variable name="Y(212,4)" index="11186" value="1"/>
  <variable name="Y(226,3)" index="11927" value="1"/>
  <variable name="Y(229,18)" index="12101" value="1"/>
  <variable name="Y(231,7)" index="12196" value="1"/>
  <variable name="Y(236,22)" index="12476" value="1"/>
  <variable name="Y(237,21)" index="12528" value="1"/>
  <variable name="Y(254,26)" index="13434" value="1"/>
  <variable name="Y(257,23)" index="13590" value="1.0000000000000011"/>
  <variable name="Y(261,24)" index="13803" value="1"/>
  <variable name="Y(262,4)" index="13836" value="1"/>
  <variable name="Y(266,1)" index="14045" value="1"/>
  <variable name="Y(275,10)" index="14531" value="1"/>
  <variable name="Y(278,19)" index="14699" value="1"/>
  <variable name="Y(279,27)" index="14760" value="1"/>
  <variable name="X(1,4,266)" index="15158" value="1"/>
  <variable name="X(1,6,52)" index="15225" value="1"/>
  <variable name="X(1,26,19)" index="15473" value="1"/>
  <variable name="X(1,28,187)" index="15922" value="1"/>
  <variable name="X(2,3,191)" index="16207" value="1"/>
  <variable name="X(2,7,195)" index="16492" value="1"/>
  <variable name="X(2,10,117)" index="16695" value="1"/>
  <variable name="X(2,29,197)" index="17056" value="1"/>
  <variable name="X(3,2,195)" index="17335" value="1"/>
  <variable name="X(3,4,212)" index="17633" value="1"/>
  <variable name="X(3,8,191)" index="17893" value="1"/>
  <variable name="X(3,18,136)" index="18119" value="1"/>
  <variable name="X(3,19,15)" index="18279" value="1"/>
  <variable name="X(3,21,163)" index="18708" value="1"/>
  <variable name="X(3,30,226)" index="19052" value="1"/>
  <variable name="X(4,1,52)" index="19159" value="1"/>
  <variable name="X(4,3,262)" index="19650" value="1"/>
  <variable name="X(4,7,231)" index="19900" value="1"/>
  <variable name="X(4,10,275)" index="20225" value="1"/>
  <variable name="X(4,17,146)" index="20377" value="1"/>
  <variable name="X(4,20,123)" index="20635" value="0.99999999999999978"/>
  <variable name="X(4,22,69)" index="20862" value="1"/>
  <variable name="X(4,27,181)" index="21255" value="1"/>
  <variable name="X(4,31,212)" index="21567" value="1"/>
  <variable name="X(5,32,110)" index="21746" value="1"/>
  <variable name="X(6,1,187)" index="22104" value="1"/>
  <variable name="X(6,9,7)" index="22205" value="1"/>
  <variable name="X(6,33,52)" index="22531" value="1"/>
  <variable name="X(7,2,117)" index="22877" value="1"/>
  <variable name="X(7,4,123)" index="23164" value="1"/>
  <variable name="X(7,8,110)" index="23432" value="1"/>
  <variable name="X(7,34,231)" index="23834" value="1"/>
  <variable name="X(8,3,136)" index="24020" value="1"/>
  <variable name="X(8,5,110)" index="24275" value="1"/>
  <variable name="X(8,7,134)" index="24580" value="1"/>
  <variable name="X(8,35,191)" index="24918" value="1"/>
  <variable name="X(9,6,187)" index="25195" value="1"/>
  <variable name="X(9,10,146)" index="25435" value="1"/>
  <variable name="X(9,11,32)" index="25602" value="1"/>
  <variable name="X(9,36,7)" index="25858" value="1"/>
  <variable name="X(10,2,191)" index="26323" value="1"/>
  <variable name="X(10,4,146)" index="26559" value="1"/>
  <variable name="X(10,9,32)" index="26726" value="1"/>
  <variable name="X(10,13,117)" index="27092" value="1"/>
  <variable name="X(10,37,275)" index="27531" value="1"/>
  <variable name="X(11,38,32)" index="27569" value="1"/>
  <variable name="X(12,17,181)" index="27999" value="1"/>
  <variable name="X(12,39,10)" index="28109" value="1"/>
  <variable name="X(13,10,184)" index="28564" value="1"/>
  <variable name="X(13,40,117)" index="28778" value="1"/>
  <variable name="X(14,9,187)" index="29129" value="1"/>
  <variable name="X(14,10,191)" index="29414" value="1"/>
  <variable name="X(15,21,195)" index="29699" value="1"/>
  <variable name="X(15,42,163)" index="29948" value="1"/>
  <variable name="X(16,17,196)" index="30262" value="1"/>
  <variable name="X(16,43,12)" index="30359" value="1"/>
  <variable name="X(17,4,181)" index="30809" value="1"/>
  <variable name="X(17,12,10)" index="30919" value="1"/>
  <variable name="X(17,16,12)" index="31202" value="1"/>
  <variable name="X(17,21,206)" index="31677" value="1"/>
  <variable name="X(17,44,146)" index="31898" value="1"/>
  <variable name="X(18,3,212)" index="32245" value="1"/>
  <variable name="X(18,19,278)" index="32592" value="1"/>
  <variable name="X(18,27,229)" index="32824" value="1"/>
  <variable name="X(18,45,136)" index="33012" value="1"/>
  <variable name="X(19,3,226)" index="33383" value="1"/>
  <variable name="X(19,18,229)" index="33667" value="1"/>
  <variable name="X(19,46,278)" index="33997" value="1"/>
  <variable name="X(20,4,231)" index="34231" value="1"/>
  <variable name="X(20,47,123)" index="34404" value="0.99999999999999978"/>
  <variable name="X(21,3,195)" index="34757" value="1"/>
  <variable name="X(21,15,163)" index="35006" value="1"/>
  <variable name="X(21,22,236)" index="35360" value="1"/>
  <variable name="X(21,27,237)" index="35642" value="1"/>
  <variable name="X(21,48,17)" index="35703" value="1"/>
  <variable name="X(22,4,262)" index="36229" value="1"/>
  <variable name="X(22,21,17)" index="36265" value="1"/>
  <variable name="X(22,23,19)" index="36548" value="1"/>
  <variable name="X(22,24,69)" index="36879" value="1"/>
  <variable name="X(22,25,20)" index="37111" value="1"/>
  <variable name="X(22,26,254)" index="37626" value="1"/>
  <variable name="X(22,49,236)" index="37889" value="1"/>
  <variable name="X(23,22,257)" index="38191" value="1.0000000000000011"/>
  <variable name="X(23,50,19)" index="38234" value="1"/>
  <variable name="X(24,22,261)" index="38757" value="1"/>
  <variable name="X(24,51,69)" index="38846" value="1"/>
  <variable name="X(25,22,262)" index="39320" value="1"/>
  <variable name="X(25,52,20)" index="39359" value="1"/>
  <variable name="X(26,1,266)" index="39886" value="1"/>
  <variable name="X(26,22,19)" index="39920" value="1"/>
  <variable name="X(26,53,254)" index="40436" value="1"/>
  <variable name="X(27,4,275)" index="40738" value="1"/>
  <variable name="X(27,18,278)" index="41022" value="1"/>
  <variable name="X(27,21,279)" index="41304" value="1"/>
  <variable name="X(27,54,181)" index="41487" value="1"/>
  <variable name="C(7,9)" index="41611" value="1"/>
  <variable name="C(10,12)" index="41622" value="1"/>
  <variable name="C(12,16)" index="41630" value="1"/>
  <variable name="C(17,21)" index="41648" value="1"/>
  <variable name="C(19,26)" index="41653" value="1"/>
  <variable name="C(19,22)" index="41654" value="2"/>
  <variable name="C(19,23)" index="41655" value="3"/>
  <variable name="C(20,25)" index="41659" value="1"/>
  <variable name="C(32,9)" index="41694" value="1"/>
  <variable name="C(32,11)" index="41695" value="2"/>
  <variable name="C(52,1)" index="41770" value="1"/>
  <variable name="C(52,6)" index="41771" value="2"/>
  <variable name="C(69,22)" index="41825" value="1"/>
  <variable name="C(69,24)" index="41826" value="2"/>
  <variable name="C(110,8)" index="41953" value="1"/>
  <variable name="C(110,5)" index="41954" value="2"/>
  <variable name="C(117,2)" index="41978" value="1"/>
  <variable name="C(117,10)" index="41979" value="2"/>
  <variable name="C(117,13)" index="41980" value="3"/>
  <variable name="C(123,4)" index="42002" value="1"/>
  <variable name="C(123,20)" index="42003" value="1.9999999999999998"/>
  <variable name="C(136,3)" index="42046" value="1"/>
  <variable name="C(136,18)" index="42047" value="2"/>
  <variable name="C(146,10)" index="42084" value="1"/>
  <variable name="C(146,4)" index="42085" value="2"/>
  <variable name="C(146,17)" index="42086" value="3"/>
  <variable name="C(163,21)" index="42143" value="1"/>
  <variable name="C(163,15)" index="42144" value="2"/>
  <variable name="C(181,12)" index="42210" value="1"/>
  <variable name="C(181,17)" index="42211" value="2"/>
  <variable name="C(181,4)" index="42212" value="3"/>
  <variable name="C(181,27)" index="42213" value="4"/>
  <variable name="C(187,9)" index="42234" value="1"/>
  <variable name="C(187,6)" index="42235" value="2"/>
  <variable name="C(187,1)" index="42236" value="3"/>
  <variable name="C(191,10)" index="42249" value="1"/>
  <variable name="C(191,2)" index="42250" value="2"/>
  <variable name="C(191,3)" index="42251" value="3"/>
  <variable name="C(191,8)" index="42252" value="4"/>
  <variable name="C(195,21)" index="42266" value="1"/>
  <variable name="C(195,3)" index="42267" value="2"/>
  <variable name="C(195,2)" index="42268" value="3"/>
  <variable name="C(212,3)" index="42326" value="1"/>
  <variable name="C(212,4)" index="42327" value="2"/>
  <variable name="C(226,3)" index="42378" value="1"/>
  <variable name="C(229,18)" index="42388" value="1"/>
  <variable name="C(231,4)" index="42395" value="1"/>
  <variable name="C(231,7)" index="42396" value="2"/>
  <variable name="C(236,22)" index="42411" value="1"/>
  <variable name="C(254,26)" index="42467" value="0.99999999900000003"/>
  <variable name="C(262,22)" index="42496" value="1"/>
  <variable name="C(262,4)" index="42497" value="2"/>
  <variable name="C(266,1)" index="42512" value="1"/>
  <variable name="C(275,4)" index="42541" value="1"/>
  <variable name="C(275,10)" index="42542" value="2"/>
  <variable name="C(278,18)" index="42549" value="1"/>
  <variable name="C(278,19)" index="42550" value="2"/>
 </variables>
</CPLEXSolution>
